0 2372
1 2220
2 2220
3 2044
4 1991
5 1969
6 1969
7 1955
8 1832
9 1779
10 1779
11 1734
12 1734
13 1734
14 1712
15 1712
16 1712
17 1712
18 1712
19 1678
20 1676
21 1676
22 1676
23 1676
24 1676
25 1676
26 1627
27 1627
28 1627
29 1627
30 1621
31 1621
32 1621
33 1621
34 1621
35 1618
36 1618
37 1612
38 1589
39 1542
40 1542
41 1486
42 1486
43 1462
44 1462
45 1462
46 1421
47 1421
48 1421
49 1410
50 1410
51 1410
52 1410
53 1410
54 1410
55 1410
56 1403
57 1403
58 1403
59 1403
60 1403
61 1403
62 1403
63 1396
64 1396
65 1396
66 1390
67 1364
68 1364
69 1364
70 1364
71 1364
72 1336
73 1336
74 1336
75 1336
76 1336
77 1336
78 1336
79 1336
80 1336
81 1336
82 1336
83 1336
84 1336
85 1336
86 1336
87 1336
88 1336
89 1336
90 1336
91 1291
92 1291
93 1291
94 1291
95 1291
96 1291
97 1289
98 1286
99 1277
100 1277
101 1277
102 1277
103 1277
104 1257
105 1252
106 1223
107 1223
108 1223
109 1223
110 1223
111 1223
112 1223
113 1223
114 1223
115 1223
116 1154
117 1154
118 1154
119 1154
120 1154
121 1154
122 1154
123 1154
124 1154
125 1152
126 1152
127 1113
128 1113
129 1113
130 1113
131 1113
132 1113
133 1096
134 1096
135 1096
136 1096
137 1093
138 1093
139 1090
140 1090
141 1090
142 1090
143 1090
144 1090
145 1090
146 1090
147 1090
148 1090
149 1090
150 1090
151 1087
152 1081
153 1081
154 1081
155 1078
156 1078
157 1078
158 1078
159 1078
160 1078
161 1078
162 1078
163 1078
164 1078
165 1078
166 1078
167 1078
168 1078
169 1078
170 1067
171 1067
172 1067
173 1067
174 1067
175 1067
176 1067
177 1055
178 1055
179 1050
180 1050
181 1050
182 1050
183 1050
184 1041
185 1041
186 1041
187 1041
188 1041
189 1041
190 1041
191 1041
192 1041
193 1039
194 1039
195 1039
196 1039
197 1039
198 1039
199 1039
200 1039
201 1034
202 1034
203 1034
204 1034
205 1034
206 1030
207 1030
208 1030
209 1030
210 1030
211 1030
212 1030
213 1030
214 1030
215 1030
216 1030
217 1030
218 1030
219 1030
220 1030
221 1030
222 1030
223 1028
224 1017
225 1017
226 1017
227 1017
228 1017
229 1017
230 1017
231 1017
232 1017
233 1017
234 1017
235 1017
236 1017
237 1017
238 1017
239 1017
240 1017
241 1017
242 1017
243 1017
244 1017
245 1015
246 1015
247 1015
248 1015
249 1015
250 1015
251 1015
252 1015
253 1015
254 1015
255 1015
256 1015
257 1015
258 1015
259 1015
260 1015
261 1015
262 1015
263 1015
264 1015
265 1015
266 1015
267 1015
268 1015
269 1015
270 1015
271 1015
272 1015
273 1015
274 1015
275 1015
276 974
277 974
278 974
279 974
280 974
281 974
282 974
283 974
284 974
285 974
286 974
287 970
288 970
289 970
290 965
291 965
292 965
293 965
294 965
295 965
296 965
297 965
298 965
299 965
300 965
301 965
302 965
303 965
304 965
305 965
306 965
307 965
308 965
309 965
310 965
311 965
312 965
313 965
314 965
315 965
316 965
317 965
318 965
319 965
320 965
321 965
322 965
323 965
324 965
325 965
326 965
327 965
328 963
329 963
330 963
331 963
332 963
333 963
334 963
335 963
336 963
337 963
338 963
339 963
340 963
341 963
342 963
343 963
344 963
345 963
346 963
347 963
348 963
349 963
350 963
351 963
352 963
353 963
354 963
355 963
356 963
357 963
358 963
359 963
360 963
361 963
362 963
363 963
364 963
365 963
366 963
367 963
368 963
369 963
370 963
371 963
372 963
373 963
374 963
375 963
376 963
377 963
378 963
379 963
380 963
381 963
382 963
383 963
384 963
385 963
386 963
387 959
388 959
389 959
390 959
391 959
392 959
393 959
394 959
395 959
396 959
397 959
398 959
399 959
400 959
401 959
402 959
403 959
404 959
405 959
406 959
407 959
408 958
409 958
410 958
411 958
412 958
413 958
414 958
415 958
416 958
417 958
418 958
419 958
420 958
421 958
422 958
423 958
424 958
425 958
426 958
427 958
428 958
429 958
430 958
431 958
432 958
433 958
434 958
435 958
436 958
437 958
438 958
439 958
440 958
441 958
442 958
443 958
444 958
445 958
446 958
447 958
448 958
449 958
450 958
451 958
452 958
453 958
454 958
455 958
456 958
457 958
458 958
459 958
460 958
461 958
462 958
463 958
464 958
465 958
466 958
467 958
468 958
469 958
470 958
471 958
472 958
473 958
474 958
475 958
476 958
477 958
478 958
479 958
480 958
481 958
482 958
483 958
484 958
485 958
486 958
487 958
488 958
489 958
490 958
491 958
492 958
493 958
494 958
495 958
496 958
497 958
498 958
499 958
500 958
501 952
502 952
503 952
504 952
505 952
506 952
507 952
508 952
509 952
510 952
511 952
512 952
513 952
514 952
515 952
516 952
517 952
518 952
519 952
520 952
521 952
522 952
523 952
524 952
525 952
526 952
527 952
528 952
529 952
530 952
531 952
532 952
533 952
534 952
535 952
536 952
537 952
538 952
539 952
540 952
541 952
542 952
543 952
544 952
545 952
546 952
547 952
548 952
549 952
550 952
551 952
552 952
553 952
554 952
555 952
556 952
557 952
558 952
559 952
560 952
561 952
562 952
563 952
564 952
565 952
566 952
567 952
568 952
569 952
570 952
571 952
572 952
573 952
574 952
575 952
576 952
577 952
578 952
579 952
580 952
581 952
582 952
583 952
584 952
585 952
586 952
587 952
588 952
589 952
590 952
591 952
592 952
593 952
594 952
595 952
596 952
597 952
598 952
599 952
600 952
601 952
602 952
603 952
604 952
605 952
606 952
607 952
608 952
609 952
610 952
611 952
612 952
613 952
614 952
615 952
616 952
617 952
618 952
619 952
620 952
621 952
622 952
623 952
624 952
625 952
626 952
627 952
628 952
629 952
630 952
631 952
632 952
633 952
634 952
635 952
636 952
637 952
638 952
639 952
640 952
641 952
642 952
643 952
644 952
645 952
646 952
647 952
648 952
649 952
650 952
651 952
652 952
653 952
654 952
655 952
656 952
657 952
658 952
659 952
660 952
661 952
662 952
663 952
664 952
665 952
666 952
667 952
668 952
669 952
670 952
671 952
672 952
673 952
674 952
675 952
676 952
677 952
678 952
679 952
680 952
681 952
682 952
683 952
684 952
685 952
686 952
687 952
688 952
689 952
690 952
691 952
692 952
693 952
694 952
695 952
696 950
697 950
698 950
699 950
700 950
701 950
702 950
703 950
704 950
705 950
706 950
707 950
708 950
709 950
710 950
711 950
712 950
713 950
714 950
715 950
716 950
717 950
718 950
719 950
720 950
721 950
722 950
723 950
724 950
725 950
726 950
727 950
728 950
729 950
730 950
731 950
732 950
733 950
734 950
735 950
736 950
737 950
738 950
739 950
740 950
741 950
742 950
743 950
744 950
745 950
746 950
747 950
748 950
749 950
750 950
751 950
752 950
753 950
754 950
755 950
756 950
757 950
758 950
759 950
760 950
761 950
762 950
763 950
764 950
765 950
766 950
767 950
768 950
769 950
770 950
771 950
772 950
773 950
774 950
775 950
776 950
777 950
778 950
779 950
780 950
781 950
782 950
783 950
784 950
785 950
786 950
787 950
788 950
789 950
790 950
791 950
792 950
793 950
794 950
795 950
796 950
797 950
798 950
799 950
800 950
801 950
802 950
803 950
804 950
805 950
806 950
807 950
808 950
809 950
810 950
811 950
812 950
813 950
814 950
815 950
816 950
817 950
818 950
819 950
820 950
821 950
822 950
823 950
824 950
825 950
826 950
827 950
828 950
829 950
830 950
831 950
832 950
833 950
834 950
835 950
836 950
837 950
838 950
839 950
840 950
841 950
842 950
843 950
844 950
845 950
846 950
847 950
848 950
849 950
850 950
851 950
852 950
853 950
854 950
855 950
856 950
857 950
858 950
859 950
860 950
861 950
862 950
863 950
864 950
865 950
866 950
867 950
868 950
869 950
870 950
871 950
872 950
873 950
874 950
875 950
876 950
877 950
878 950
879 950
880 950
881 950
882 950
883 950
884 950
885 950
886 950
887 950
888 950
889 950
890 950
891 950
892 950
893 950
894 950
895 950
896 950
897 950
898 950
899 950
900 950
901 950
902 950
903 950
904 950
905 950
906 950
907 950
908 950
909 950
910 950
911 950
912 950
913 950
914 950
915 950
916 950
917 950
918 950
919 950
920 950
921 950
922 950
923 950
924 950
925 950
926 950
927 950
928 950
929 950
930 950
931 950
932 950
933 950
934 950
935 950
936 935
937 935
938 935
939 935
940 935
941 935
942 935
943 935
944 935
945 935
946 935
947 935
948 935
949 935
950 935
951 935
952 935
953 935
954 935
955 935
956 935
957 935
958 935
959 935
960 935
961 935
962 935
963 935
964 935
965 935
966 935
967 935
968 935
969 935
970 935
971 935
972 935
973 935
974 935
975 935
976 935
977 935
978 935
979 935
980 935
981 935
982 935
983 935
984 935
985 935
986 935
987 935
988 935
989 935
990 935
991 935
992 935
993 935
994 935
995 935
996 935
997 935
998 935
999 935
Best: [[25,7,18,20,32,22,27],
       [15,28,30,19,23,10,16,11,26],
       [31,17,8,14,2,13],
       [21,6,9,12,5,29,24,3,4]], fitness: 935
